129361
43,81,74,71,42,56,2,11,22,54,1,29,27,52,3,49,64,30,23,18,70,65,19,66,75,13,28,9,0,63,72,44,12,36,17,47,4,31,73,16,46,48,33,59,80,50,55,6,26,32,15,37,34,78,5,77,40,51,38,62,82,7,60,14,68,24,41,10,39,57,76,8,35,25,69,61,79,45,53,20,21,67,58,43